Default LOCALE: LC_CTYPE=en_US.UTF-8;LC_NUMERIC=it_IT.UTF-8;LC_TIME=en_US.UTF-8;LC_COLLATE=en_US.UTF-8;LC_MONETARY=it_IT.UTF-8;LC_MESSAGES=en_US.UTF-8;LC_PAPER=it_IT.UTF-8;LC_NAME=it_IT.UTF-8;LC_ADDRESS=it_IT.UTF-8;LC_TELEPHONE=it_IT.UTF-8;LC_MEASUREMENT=it_IT.UTF-8;LC_IDENTIFICATION=it_IT.UTF-8

<<< setup, at 0s, took 1,54878e+09s


<<< generate, at 0s, took 0,0040822s

CPXPARAM_TimeLimit                               0.10000000000000001
Tried aggregator 2 times.
MIP Presolve eliminated 9 rows and 9 columns.
Aggregator did 10 substitutions.
Reduced MIP has 111 rows, 181 columns, and 614 nonzeros.
Reduced MIP has 90 binaries, 91 generals, 0 SOSs, and 0 indicators.
Presolve time = 0,00 sec. (0,61 ticks)
Found incumbent of value 88,385439 after 0,00 sec. (1,23 ticks)
Probing fixed 7 vars, tightened 0 bounds.
Probing time = 0,00 sec. (0,36 ticks)
Cover probing fixed 0 vars, tightened 63 bounds.
Tried aggregator 1 time.
MIP Presolve eliminated 10 rows and 16 columns.
MIP Presolve modified 112 coefficients.
Reduced MIP has 101 rows, 165 columns, and 565 nonzeros.
Reduced MIP has 83 binaries, 82 generals, 0 SOSs, and 0 indicators.
Presolve time = 0,00 sec. (0,67 ticks)
Probing time = 0,00 sec. (0,30 ticks)
Clique table members: 19.
MIP emphasis: balance optimality and feasibility.
MIP search method: dynamic search.
Parallel mode: deterministic, using up to 4 threads.
Root relaxation solution time = 0,00 sec. (0,67 ticks)

        Nodes                                         Cuts/
   Node  Left     Objective  IInf  Best Integer    Best Bound    ItCnt     Gap

*     0+    0                           88,3854        0,0000           100,00%
      0     0       24,1865    29       88,3854       24,1865      116   72,64%
      0     0       26,8182    37       88,3854      Cuts: 53      169   69,66%
      0     0       28,5959    35       88,3854      Cuts: 35      205   67,65%
      0     0       36,3999    42       88,3854      Cuts: 17      258   58,82%
      0     0       39,3950    39       88,3854      Cuts: 13      276   55,43%

Cover cuts applied:  2
Implied bound cuts applied:  8
Flow cuts applied:  11
Zero-half cuts applied:  2
Lift and project cuts applied:  2
Gomory fractional cuts applied:  1

Root node processing (before b&c):
  Real time             =    0,10 sec. (31,82 ticks)
Parallel b&c, 4 threads:
  Real time             =    0,00 sec. (0,00 ticks)
  Sync time (average)   =    0,00 sec.
  Wait time (average)   =    0,00 sec.
                          ------------
Total (root+branch&cut) =    0,10 sec. (31,82 ticks)

<<< solve, at 0,31s, took 0,101536s


OBJECTIVE: 88.38544
01/29/2019 18:42:31 489
solving time ~= 103.240966797
Done
 [[0 0 5 0 0 0 0 0 0 0]
         [0 0 0 0 8 0 0 0 0 0]
         [0 0 0 0 0 0 4 0 0 0]
         [0 0 0 0 0 0 0 2 0 0]
         [0 0 0 0 0 0 0 0 7 0]
         [0 0 0 0 0 0 0 0 0 10]
         [0 0 0 3 0 0 0 0 0 0]
         [0 0 0 0 0 1 0 0 0 0]
         [6 0 0 0 0 0 0 0 0 0]
         [0 9 0 0 0 0 0 0 0 0]]

<<< post process, at 0,31s, took 0,000571012s

// solution (time limit exceeded) with objective 88.3854392354289
// Quality Incumbent solution:
// MILP objective                                 8,8385439235e+01
// MILP solution norm |x| (Total, Max)            6,50000e+01  1,00000e+01
// MILP solution error (Ax=b) (Total, Max)        0,00000e+00  0,00000e+00
// MILP x bound error (Total, Max)                0,00000e+00  0,00000e+00
// MILP x integrality error (Total, Max)          0,00000e+00  0,00000e+00
// MILP slack bound error (Total, Max)            0,00000e+00  0,00000e+00
// 

y = [[0
             0 1 0 0 0 0 0 0 0]
             [0 0 0 0 1 0 0 0 0 0]
             [0 0 0 0 0 0 1 0 0 0]
             [0 0 0 0 0 0 0 1 0 0]
             [0 0 0 0 0 0 0 0 1 0]
             [0 0 0 0 0 0 0 0 0 1]
             [0 0 0 1 0 0 0 0 0 0]
             [0 0 0 0 0 1 0 0 0 0]
             [1 0 0 0 0 0 0 0 0 0]
             [0 1 0 0 0 0 0 0 0 0]];
x = [[0 0 5 0 0 0 0 0 0 0]
             [0 0 0 0 8 0 0 0 0 0]
             [0 0 0 0 0 0 4 0 0 0]
             [0 0 0 0 0 0 0 2 0 0]
             [0 0 0 0 0 0 0 0 7 0]
             [0 0 0 0 0 0 0 0 0 10]
             [0 0 0 3 0 0 0 0 0 0]
             [0 0 0 0 0 1 0 0 0 0]
             [6 0 0 0 0 0 0 0 0 0]
             [0 9 0 0 0 0 0 0 0 0]];

<<< done, at 0,31s, took 0,000465155s

